% seed = 0

mint = 31;
% maxt = 151;

nActs = 62;
dur = [0,2,3,5,4,1,1,4,3,2,2,3,5,4,2,1,2,3,2,2,3,2,3,1,1,3,1,2,1,3,1,1,5,4,4,2,3,2,2,2,4,1,2,4,1,2,2,4,3,3,5,5,1,2,2,1,3,2,4,1,2,0];

nSkills = 3;
sreq = [| 0,0,0,
	| 0,1,2,
	| 3,3,0,
	| 0,2,2,
	| 0,1,1,
	| 3,0,0,
	| 4,0,0,
	| 3,2,1,
	| 0,2,0,
	| 3,3,0,
	| 0,3,1,
	| 0,4,3,
	| 0,2,0,
	| 4,1,0,
	| 2,2,2,
	| 2,1,0,
	| 0,2,1,
	| 0,1,1,
	| 1,0,1,
	| 0,2,0,
	| 2,0,1,
	| 4,2,0,
	| 5,0,1,
	| 0,1,1,
	| 0,1,0,
	| 1,0,0,
	| 4,0,3,
	| 1,0,0,
	| 2,1,2,
	| 3,0,0,
	| 0,1,1,
	| 2,2,3,
	| 1,0,0,
	| 1,1,0,
	| 2,0,0,
	| 1,2,0,
	| 0,3,0,
	| 3,2,0,
	| 1,4,0,
	| 3,3,0,
	| 0,2,3,
	| 1,1,0,
	| 3,0,0,
	| 0,0,1,
	| 0,5,1,
	| 0,3,0,
	| 2,4,0,
	| 2,1,1,
	| 2,2,0,
	| 3,0,0,
	| 3,0,1,
	| 1,0,0,
	| 1,3,0,
	| 2,4,0,
	| 0,1,0,
	| 2,0,0,
	| 3,0,0,
	| 1,1,0,
	| 3,0,0,
	| 1,1,0,
	| 2,0,0,
	| 0,0,0, |];

% SumOfsreq = 210;

nResources = 10;
mastery = [| true,false,true,
	| true,true,false,
	| false,true,true,
	| true,false,true,
	| true,true,false,
	| false,true,true,
	| true,true,false,
	| true,true,false,
	| true,true,false,
	| true,true,false, |];

nPrecs = 112;
pred = [1,1,1,2,2,2,3,3,3,4,4,4,5,5,5,6,6,7,7,7,8,8,8,9,9,9,10,11,11,11,12,12,12,13,14,14,14,15,15,15,16,17,17,18,18,19,19,19,20,20,21,21,22,22,23,23,24,24,25,25,25,26,27,27,28,28,29,30,30,31,31,32,32,33,33,33,34,35,36,37,38,39,39,40,40,41,42,43,43,43,44,44,45,45,46,47,48,49,49,50,51,52,53,53,54,55,56,57,58,59,60,61];
succ = [2,3,4,10,20,5,9,7,8,18,6,23,17,33,24,11,28,41,26,39,18,15,56,41,40,16,31,19,12,13,37,14,32,22,49,44,48,33,37,24,42,27,59,57,34,29,51,21,25,39,41,43,26,30,53,37,44,45,33,38,31,34,53,55,30,39,44,49,32,43,32,34,51,60,35,36,55,46,54,38,58,43,61,52,55,49,45,56,46,48,57,58,51,54,47,50,59,52,53,59,52,61,54,56,57,60,58,61,60,62,62,62];

nUnrels = 1122;
unpred = [2,2,2,2,2,2,2,2,2,2,2,2,2,2,2,2,2,2,2,2,2,2,2,2,2,2,3,3,3,3,3,3,3,3,3,3,3,3,3,3,3,3,3,3,3,3,3,4,4,4,4,4,4,4,4,4,4,4,4,4,4,4,4,4,4,4,5,5,5,5,5,5,5,5,5,5,5,5,5,5,5,5,5,5,5,5,5,5,5,5,5,5,5,5,5,5,5,5,5,5,6,6,6,6,6,6,6,6,6,6,6,6,6,6,6,6,6,6,6,6,7,7,7,7,7,7,7,7,7,7,7,7,7,7,7,7,7,7,7,7,7,7,7,7,7,7,7,7,7,7,7,7,7,7,8,8,8,8,8,8,8,8,8,8,8,8,8,8,8,8,8,8,8,8,8,8,8,8,8,8,8,8,8,9,9,9,9,9,9,9,9,9,9,9,9,9,9,9,9,9,9,9,9,9,9,9,9,9,9,9,9,9,9,9,9,9,9,9,9,10,10,10,10,10,10,10,10,10,10,10,10,10,10,10,10,10,10,10,10,10,10,10,10,10,10,10,10,10,10,10,10,10,10,10,11,11,11,11,11,11,11,11,11,11,11,11,11,11,11,11,11,11,12,12,12,12,12,12,12,12,12,12,12,12,12,12,12,12,12,12,12,12,12,12,12,12,12,12,12,12,12,12,13,13,13,13,13,13,13,13,13,13,13,13,13,13,13,13,13,13,13,13,13,13,13,13,13,13,13,13,13,13,13,13,14,14,14,14,14,14,14,14,14,14,14,14,14,14,14,14,14,14,14,14,14,14,14,14,14,14,14,14,14,14,14,14,14,14,14,15,15,15,15,15,15,15,15,15,15,15,15,15,15,15,15,15,15,15,15,15,15,15,15,15,15,15,16,16,16,16,16,16,16,16,16,16,16,16,16,16,16,16,16,16,16,16,16,16,16,16,16,16,16,16,16,16,16,16,16,16,16,16,16,16,17,17,17,17,17,17,17,17,17,17,17,17,17,17,17,17,17,17,17,17,17,17,17,17,17,17,17,17,17,17,17,17,17,17,18,18,18,18,18,18,18,18,18,18,18,18,18,18,18,18,18,18,18,18,18,18,18,18,18,18,18,18,18,18,18,18,18,18,18,18,18,18,19,19,19,19,19,19,19,19,19,19,19,19,19,19,19,19,19,19,19,19,19,19,20,20,20,20,20,20,20,20,20,20,20,20,20,20,20,20,20,21,21,21,21,21,21,21,21,21,21,21,21,21,21,21,21,21,21,21,21,21,21,21,21,22,22,22,22,22,22,22,22,22,22,22,22,22,22,22,22,22,22,22,22,22,22,22,22,23,23,23,23,23,23,23,23,23,23,23,23,23,23,23,23,23,23,23,23,23,23,23,23,23,23,23,23,23,24,24,24,24,24,24,24,24,24,24,24,24,24,24,24,24,24,24,24,24,24,24,24,24,24,24,24,24,25,25,25,25,25,25,25,25,25,25,25,25,25,25,26,26,26,26,26,26,26,26,26,26,26,26,26,26,26,26,26,26,26,26,26,26,26,26,26,26,26,26,26,26,26,26,27,27,27,27,27,27,27,27,27,27,27,27,27,27,27,27,27,27,27,27,27,27,27,27,27,27,28,28,28,28,28,28,28,28,28,28,28,28,29,29,29,29,29,29,29,29,29,29,29,29,29,29,29,29,29,29,29,29,29,29,29,29,29,29,29,30,30,30,30,30,30,30,30,30,30,30,30,30,30,30,30,30,30,31,31,31,31,31,31,31,31,31,31,31,31,31,31,31,32,32,32,32,32,32,32,32,32,32,32,32,32,32,32,32,32,32,32,32,32,32,32,33,33,33,33,33,33,33,33,33,33,33,33,33,33,33,33,33,33,34,34,34,34,34,34,34,34,34,34,34,34,34,34,34,34,34,34,34,34,34,34,34,34,34,35,35,35,35,35,35,35,35,35,35,35,35,35,35,35,35,35,35,35,35,35,35,36,36,36,36,36,36,36,36,36,36,36,36,36,36,36,36,36,36,36,36,36,36,37,37,37,37,37,37,37,37,37,37,37,37,37,37,37,37,37,37,37,37,37,38,38,38,38,38,38,38,38,38,38,38,38,38,38,38,38,38,38,38,38,38,39,39,39,39,39,39,39,39,39,39,39,39,40,40,40,40,40,40,40,40,40,40,40,40,40,40,40,40,40,41,41,41,41,41,41,41,41,41,41,41,42,42,42,42,42,42,42,42,42,42,42,42,42,43,43,43,43,43,43,43,43,43,43,44,44,44,44,44,44,44,44,44,44,44,44,44,45,45,45,45,45,45,45,45,45,45,45,46,46,46,46,46,46,46,46,46,46,46,46,47,47,47,47,47,47,47,47,47,47,47,47,48,48,48,48,48,48,48,48,48,48,48,48,49,49,49,49,50,50,50,50,50,50,50,50,50,50,51,51,51,51,51,51,51,51,52,52,52,52,52,52,52,52,53,53,54,54,54,54,54,55,55,55,55,55,56,56,56,57,57,57,58,58,59,59,60];
unsucc = [3,4,6,7,8,9,11,12,13,14,15,16,18,19,21,22,23,26,28,29,30,37,40,41,42,49,4,5,6,10,11,12,13,14,17,19,20,21,22,23,25,27,28,29,30,31,32,5,7,8,9,10,15,16,17,20,24,25,27,31,33,35,36,40,42,45,6,7,8,9,10,11,12,13,14,15,16,18,19,20,21,22,23,25,26,28,29,30,31,32,34,37,38,39,40,41,42,43,48,49,7,8,9,10,15,16,17,18,20,23,24,25,27,31,33,35,36,40,42,45,8,9,10,11,12,13,14,15,16,17,18,19,20,21,22,23,24,25,27,28,29,30,31,32,33,35,36,37,38,40,42,44,45,51,9,10,11,12,13,14,16,17,19,20,21,22,23,25,26,27,28,29,30,31,32,39,40,41,42,43,48,49,53,10,11,12,13,14,15,17,18,19,20,21,22,23,24,25,26,27,28,29,30,31,32,33,34,35,36,37,38,39,43,44,46,47,48,50,59,11,12,13,14,15,16,17,18,19,20,21,22,23,24,25,26,27,28,29,30,33,35,36,37,38,39,40,41,42,44,45,49,53,54,57,15,16,17,18,20,23,24,25,27,28,31,33,35,36,39,40,42,45,13,15,16,17,18,19,20,21,22,23,24,25,26,27,28,29,30,31,33,35,36,39,40,41,42,43,45,46,47,50,14,15,16,17,18,19,20,21,23,24,25,27,28,29,31,33,35,36,37,38,39,40,41,42,43,44,45,46,47,48,50,59,15,16,17,18,19,20,21,22,23,24,25,26,27,28,29,30,31,32,33,34,35,36,37,38,39,40,41,42,43,45,46,47,50,51,55,16,17,18,19,20,21,22,23,25,26,27,28,29,30,31,32,34,39,40,41,42,43,48,49,53,55,56,17,18,19,20,21,22,23,24,25,26,27,28,29,30,31,32,33,34,35,36,37,38,39,40,41,43,44,46,47,48,49,50,53,55,56,58,59,60,18,19,20,21,22,23,24,25,26,28,29,30,31,32,33,34,35,36,37,38,39,40,41,42,43,44,45,46,47,48,49,50,51,52,19,20,21,22,23,24,25,26,27,28,29,30,31,32,33,35,36,37,38,39,40,41,42,43,44,45,46,47,48,49,50,51,52,53,54,56,58,59,20,22,23,24,25,26,27,28,30,31,32,33,34,35,36,37,38,39,40,42,45,55,21,22,23,24,26,27,28,29,30,37,40,41,42,44,45,49,53,22,23,24,25,26,27,28,29,30,31,32,33,34,35,36,37,38,39,40,42,44,45,51,55,23,24,25,27,28,29,31,33,35,36,37,38,39,40,41,42,43,44,45,46,47,48,50,59,24,25,26,27,28,29,30,31,32,33,34,35,36,39,40,41,42,43,44,45,46,47,48,49,50,51,52,55,59,25,26,27,28,29,30,31,32,33,34,35,36,37,38,39,40,41,42,43,46,47,48,49,50,53,55,56,59,26,27,28,29,30,37,39,40,41,42,44,45,49,53,27,28,29,30,31,32,33,35,36,37,38,39,40,41,42,43,44,45,46,47,48,49,50,51,52,53,54,56,57,58,59,61,28,29,30,31,32,33,34,35,36,37,38,39,40,41,42,43,44,45,46,47,48,49,50,51,52,59,29,31,33,35,36,37,38,40,41,42,44,45,30,31,32,33,34,35,36,37,38,39,40,41,42,43,45,46,47,48,49,50,51,52,53,54,55,56,59,31,33,35,36,37,38,39,40,41,42,43,44,45,46,47,48,50,59,33,35,36,37,38,39,40,41,42,44,45,49,53,54,57,33,35,36,37,38,39,40,41,42,43,44,45,46,47,48,49,50,53,54,56,57,58,59,34,37,38,39,40,41,42,43,44,45,48,49,51,52,53,55,56,58,35,36,37,38,39,40,41,42,43,44,45,46,47,48,49,50,51,52,53,54,56,57,58,59,61,36,37,38,39,40,41,42,43,44,45,48,49,51,52,53,54,55,56,57,58,60,61,37,38,39,40,41,42,43,44,45,46,47,48,49,50,51,52,53,55,56,58,59,60,39,40,41,42,43,44,45,46,47,48,49,50,51,52,53,54,55,56,57,59,61,39,40,41,42,43,44,45,46,47,48,49,50,51,52,53,54,55,56,57,59,61,40,41,42,44,45,49,51,52,53,54,55,57,41,42,43,44,45,46,47,48,49,50,51,53,54,56,57,58,59,42,43,44,45,46,47,48,50,51,55,59,43,44,46,47,48,49,50,53,55,56,58,59,60,44,45,49,51,52,53,54,55,57,61,45,46,47,48,49,50,51,52,53,54,55,56,59,46,47,48,49,50,53,55,56,58,59,60,48,49,51,52,53,54,55,56,57,58,60,61,48,49,51,52,53,54,55,56,57,58,60,61,49,50,51,52,53,54,55,56,57,58,60,61,50,51,55,59,51,52,53,54,55,56,57,58,60,61,53,54,55,56,57,58,59,60,53,54,55,56,57,58,59,60,55,59,55,56,58,59,60,56,57,58,59,61,57,59,61,58,59,60,59,61,60,61,61];

USEFUL_RES = [{},
	{1,2,3,4,5,6,7,8,9,10},
	{1,2,3,4,5,6,7,8,9,10},
	{1,2,3,4,5,6,7,8,9,10},
	{1,2,3,4,5,6,7,8,9,10},
	{1,2,4,5,7,8,9,10},
	{1,2,4,5,7,8,9,10},
	{1,2,3,4,5,6,7,8,9,10},
	{2,3,5,6,7,8,9,10},
	{1,2,3,4,5,6,7,8,9,10},
	{1,2,3,4,5,6,7,8,9,10},
	{1,2,3,4,5,6,7,8,9,10},
	{2,3,5,6,7,8,9,10},
	{1,2,3,4,5,6,7,8,9,10},
	{1,2,3,4,5,6,7,8,9,10},
	{1,2,3,4,5,6,7,8,9,10},
	{1,2,3,4,5,6,7,8,9,10},
	{1,2,3,4,5,6,7,8,9,10},
	{1,2,3,4,5,6,7,8,9,10},
	{2,3,5,6,7,8,9,10},
	{1,2,3,4,5,6,7,8,9,10},
	{1,2,3,4,5,6,7,8,9,10},
	{1,2,3,4,5,6,7,8,9,10},
	{1,2,3,4,5,6,7,8,9,10},
	{2,3,5,6,7,8,9,10},
	{1,2,4,5,7,8,9,10},
	{1,2,3,4,5,6,7,8,9,10},
	{1,2,4,5,7,8,9,10},
	{1,2,3,4,5,6,7,8,9,10},
	{1,2,4,5,7,8,9,10},
	{1,2,3,4,5,6,7,8,9,10},
	{1,2,3,4,5,6,7,8,9,10},
	{1,2,4,5,7,8,9,10},
	{1,2,3,4,5,6,7,8,9,10},
	{1,2,4,5,7,8,9,10},
	{1,2,3,4,5,6,7,8,9,10},
	{2,3,5,6,7,8,9,10},
	{1,2,3,4,5,6,7,8,9,10},
	{1,2,3,4,5,6,7,8,9,10},
	{1,2,3,4,5,6,7,8,9,10},
	{1,2,3,4,5,6,7,8,9,10},
	{1,2,3,4,5,6,7,8,9,10},
	{1,2,4,5,7,8,9,10},
	{1,3,4,6},
	{1,2,3,4,5,6,7,8,9,10},
	{2,3,5,6,7,8,9,10},
	{1,2,3,4,5,6,7,8,9,10},
	{1,2,3,4,5,6,7,8,9,10},
	{1,2,3,4,5,6,7,8,9,10},
	{1,2,4,5,7,8,9,10},
	{1,2,3,4,5,6,7,8,9,10},
	{1,2,4,5,7,8,9,10},
	{1,2,3,4,5,6,7,8,9,10},
	{1,2,3,4,5,6,7,8,9,10},
	{2,3,5,6,7,8,9,10},
	{1,2,4,5,7,8,9,10},
	{1,2,4,5,7,8,9,10},
	{1,2,3,4,5,6,7,8,9,10},
	{1,2,4,5,7,8,9,10},
	{1,2,3,4,5,6,7,8,9,10},
	{1,2,4,5,7,8,9,10},
	{}];

POTENTIAL_ACT = [{2,3,4,5,6,7,8,10,11,12,14,15,16,17,18,19,21,22,23,24,26,27,28,29,30,31,32,33,34,35,36,38,39,40,41,42,43,44,45,47,48,49,50,51,52,53,54,56,57,58,59,60,61},
	{2,3,4,5,6,7,8,9,10,11,12,13,14,15,16,17,18,19,20,21,22,23,24,25,26,27,28,29,30,31,32,33,34,35,36,37,38,39,40,41,42,43,45,46,47,48,49,50,51,52,53,54,55,56,57,58,59,60,61},
	{2,3,4,5,8,9,10,11,12,13,14,15,16,17,18,19,20,21,22,23,24,25,27,29,31,32,34,36,37,38,39,40,41,42,44,45,46,47,48,49,51,53,54,55,58,60},
	{2,3,4,5,6,7,8,10,11,12,14,15,16,17,18,19,21,22,23,24,26,27,28,29,30,31,32,33,34,35,36,38,39,40,41,42,43,44,45,47,48,49,50,51,52,53,54,56,57,58,59,60,61},
	{2,3,4,5,6,7,8,9,10,11,12,13,14,15,16,17,18,19,20,21,22,23,24,25,26,27,28,29,30,31,32,33,34,35,36,37,38,39,40,41,42,43,45,46,47,48,49,50,51,52,53,54,55,56,57,58,59,60,61},
	{2,3,4,5,8,9,10,11,12,13,14,15,16,17,18,19,20,21,22,23,24,25,27,29,31,32,34,36,37,38,39,40,41,42,44,45,46,47,48,49,51,53,54,55,58,60},
	{2,3,4,5,6,7,8,9,10,11,12,13,14,15,16,17,18,19,20,21,22,23,24,25,26,27,28,29,30,31,32,33,34,35,36,37,38,39,40,41,42,43,45,46,47,48,49,50,51,52,53,54,55,56,57,58,59,60,61},
	{2,3,4,5,6,7,8,9,10,11,12,13,14,15,16,17,18,19,20,21,22,23,24,25,26,27,28,29,30,31,32,33,34,35,36,37,38,39,40,41,42,43,45,46,47,48,49,50,51,52,53,54,55,56,57,58,59,60,61},
	{2,3,4,5,6,7,8,9,10,11,12,13,14,15,16,17,18,19,20,21,22,23,24,25,26,27,28,29,30,31,32,33,34,35,36,37,38,39,40,41,42,43,45,46,47,48,49,50,51,52,53,54,55,56,57,58,59,60,61},
	{2,3,4,5,6,7,8,9,10,11,12,13,14,15,16,17,18,19,20,21,22,23,24,25,26,27,28,29,30,31,32,33,34,35,36,37,38,39,40,41,42,43,45,46,47,48,49,50,51,52,53,54,55,56,57,58,59,60,61}];
